(set-info :Origin "This instance was generated by: BanditFuzz-- an RL fuzzer for SMT solvers" )
(set-info :Author "Joe Scott, Fed Mora, Vijay Ganesh" )
(set-info :Contact "Joe Scott, joseph.scott@uwaterloo.ca")
(set-logic QF_BV)
(declare-const bool_0 Bool)
(declare-const bool_1 Bool)
(declare-const bool_2 Bool)
(declare-const bool_3 Bool)
(declare-const bool_4 Bool)
(declare-const bv_0 (_ BitVec 32))
(declare-const bv_1 (_ BitVec 32))
(declare-const bv_2 (_ BitVec 32))
(declare-const bv_3 (_ BitVec 32))
(declare-const bv_4 (_ BitVec 32))
(assert (bvuge (bvashr (bvsdiv bv_4 #x3601d86d ) (bvand bv_2 bv_0)) (bvand (bvsrem bv_4 bv_1) (bvxor #xf9c30458  #xbe6b2625 ))))
(assert (and (bvsle (bvsub #x85602740  #xb066721e ) (bvashr bv_4 #x290cf19d )) (bvsle (bvsrem bv_1 bv_4) (bvmul bv_1 bv_0))))
(assert (bvsge (bvor (bvand #x205fc948  #x01e5a6f7 ) (bvsdiv bv_4 bv_2)) (bvsdiv (bvudiv bv_2 bv_3) (bvlshr bv_0 #xe3ddf077 ))))
(assert (or (=> (or false true) (bvsge bv_4 #x200ab497 )) (and (bvult bv_2 bv_0) (bvslt bv_3 bv_2))))
(assert (bvsgt (bvnand (bvadd #x952ce6d2  bv_3) (bvnand #x5b5bfcc8  #x48591204 )) (bvudiv (bvudiv #x105b1594  #xc1471f07 ) (bvshl #xe1d0db66  bv_0))))
(check-sat)
(exit)
